webassembly/ejemplos_dzn/14/folder14_json_98.dzn
TERM = { '.', 's(2)', 's(5)', 's(4)', 'in_1', 'local_1', 'in_6', 'in_2', 'in_4', 'in_3', 'in_8', 's(1)', 's(0)', 'in_7', 'in_5', 's(3)', 'in_0'};
null = '.';
s = 14;
n = 14;
ndeps = 4;
max_registers_sz = 4;
NR = 1;
registers = [|'local_1', 's(4)'|];
dependencies = [|'i32.store_1', 'i32.load16_s_3', |'i32.load16_s_3', 'i32.store16_6', |'i32.store16_6', 'i32.load8_u_7', |'i32.load8_u_7', 'i32.store_13'|];
GET_ENUM = { GET1, GET2, GET3, GET4, GET5};
SET_ENUM = { SET1, SET2, SET3, SET4, SET5};
TEE_ENUM = { TEE1, TEE2, TEE3, TEE4, TEE5};
N = 9;
OP = { 'i32.store_1', 'i32.load16_s_3', 'i32.store16_6', 'i32.load8_u_7', 'i32.const_0', 'i32.sub_0', 'i32.add_0', 'i32.add_1', 'i32.store_13' };
in_ops = [2, 1, 2, 1, 0, 2, 2, 2, 2 ];
out_ops = [0, 1, 0, 1, 1, 1, 1, 1, 0 ];
in1 = ['in_1', 'in_3', 's(0)', 'in_5', '.', 's(1)', 's(2)', 's(3)', 's(5)' ];
in2 = ['in_2', '.', 'in_4', '.', '.', 'in_6', 'in_7', 'in_8', 's(4)' ];
in3 = ['.', '.', '.', '.', '.', '.', '.', '.', '.' ];
out1 = ['.', 's(0)', '.', 's(1)', 's(5)', 's(2)', 's(3)', 's(4)', '.' ];
out2 = ['.', '.', '.', '.', '.', '.', '.', '.', '.' ];
out3 = ['.', '.', '.', '.', '.', '.', '.', '.', '.' ];
comm = [false, false, false, false, false, false, true, true, false ];
gas = [1, 1, 1, 1, 1, 1, 1, 1, 1 ];
sz = [1, 1, 1, 1, 1, 1, 1, 1, 1 ];
stor = [true, false, true, false, false, false, false, false, true ];
lb = [ 1, 1, 1, 1, 1, 1, 1, 1, 1 ];
ub = [ 14, 14, 14, 14, 14, 14, 14, 14, 14 ];
startstack = [ 'in_0', 'in_1', 'in_2', 'in_3', 'in_4', 'in_5', 'in_6', 'in_7', 'in_8', null, null, null, null, null ];
endstack = [ null, null, null, null, null, null, null, null, null, null, null, null, null, null ];
