webassembly/ejemplos_results/14/folder14_json_98.txt
value = 14;
fgas = [1, 2, 2, 1, 1, 1, 1, 1, 1, 1, 1, 1, 1, 1];
fsize = [1, 1, 1, 1, 1, 1, 1, 1, 1, 1, 1, 1, 1, 1];
states = 
[|   in_0,   in_1, in_2, in_3, in_4, in_5, in_6, in_7, in_8,  '.', '.', '.', '.', '.'
 | 's(5)',   in_0, in_1, in_2, in_3, in_4, in_5, in_6, in_7, in_8, '.', '.', '.', '.'
 |   in_0,   in_1, in_2, in_3, in_4, in_5, in_6, in_7, in_8,  '.', '.', '.', '.', '.'
 |   in_1,   in_2, in_3, in_4, in_5, in_6, in_7, in_8,  '.',  '.', '.', '.', '.', '.'
 |   in_3,   in_4, in_5, in_6, in_7, in_8,  '.',  '.',  '.',  '.', '.', '.', '.', '.'
 |   in_3,   in_4, in_5, in_6, in_7, in_8,  '.',  '.',  '.',  '.', '.', '.', '.', '.'
 | 's(0)',   in_4, in_5, in_6, in_7, in_8,  '.',  '.',  '.',  '.', '.', '.', '.', '.'
 |   in_5,   in_6, in_7, in_8,  '.',  '.',  '.',  '.',  '.',  '.', '.', '.', '.', '.'
 | 's(1)',   in_6, in_7, in_8,  '.',  '.',  '.',  '.',  '.',  '.', '.', '.', '.', '.'
 | 's(2)',   in_7, in_8,  '.',  '.',  '.',  '.',  '.',  '.',  '.', '.', '.', '.', '.'
 | 's(3)',   in_8,  '.',  '.',  '.',  '.',  '.',  '.',  '.',  '.', '.', '.', '.', '.'
 | 's(4)',    '.',  '.',  '.',  '.',  '.',  '.',  '.',  '.',  '.', '.', '.', '.', '.'
 | 's(4)',    '.',  '.',  '.',  '.',  '.',  '.',  '.',  '.',  '.', '.', '.', '.', '.'
 | 's(5)', 's(4)',  '.',  '.',  '.',  '.',  '.',  '.',  '.',  '.', '.', '.', '.', '.'
 |    '.',    '.',  '.',  '.',  '.',  '.',  '.',  '.',  '.',  '.', '.', '.', '.', '.'
 |];
register_states = 
[| local_1, '.', '.', '.', '.'
 | local_1, '.', '.', '.', '.'
 | local_1, '.', '.', '.', '.'
 | local_1, '.', '.', '.', '.'
 | local_1, '.', '.', '.', '.'
 |    in_3, '.', '.', '.', '.'
 |    in_3, '.', '.', '.', '.'
 |    in_3, '.', '.', '.', '.'
 |    in_3, '.', '.', '.', '.'
 |    in_3, '.', '.', '.', '.'
 |    in_3, '.', '.', '.', '.'
 |    in_3, '.', '.', '.', '.'
 |  's(4)', '.', '.', '.', '.'
 |  's(4)', '.', '.', '.', '.'
 |  's(4)', '.', '.', '.', '.'
 |];
program = [O('i32.const_0'), POP, POP, O('i32.store_1'), TEE(TEE1), O('i32.load16_s_3'), O('i32.store16_6'), O('i32.load8_u_7'), O('i32.sub_0'), O('i32.add_0'), O('i32.add_1'), TEE(TEE1), O('i32.const_0'), O('i32.store_13')];
% time elapsed: 0.28 s
----------
value = 13;
fgas = [1, 1, 1, 1, 1, 1, 1, 1, 1, 1, 1, 1, 1, 0];
fsize = [1, 1, 1, 1, 1, 1, 1, 1, 1, 1, 1, 1, 1, 1];
states = 
[|   in_0,   in_1, in_2, in_3, in_4, in_5, in_6, in_7, in_8, '.', '.', '.', '.', '.'
 |   in_1,   in_2, in_3, in_4, in_5, in_6, in_7, in_8,  '.', '.', '.', '.', '.', '.'
 |   in_1,   in_2, in_3, in_4, in_5, in_6, in_7, in_8,  '.', '.', '.', '.', '.', '.'
 |   in_3,   in_4, in_5, in_6, in_7, in_8,  '.',  '.',  '.', '.', '.', '.', '.', '.'
 |   in_3,   in_4, in_5, in_6, in_7, in_8,  '.',  '.',  '.', '.', '.', '.', '.', '.'
 | 's(0)',   in_4, in_5, in_6, in_7, in_8,  '.',  '.',  '.', '.', '.', '.', '.', '.'
 |   in_5,   in_6, in_7, in_8,  '.',  '.',  '.',  '.',  '.', '.', '.', '.', '.', '.'
 | 's(1)',   in_6, in_7, in_8,  '.',  '.',  '.',  '.',  '.', '.', '.', '.', '.', '.'
 | 's(2)',   in_7, in_8,  '.',  '.',  '.',  '.',  '.',  '.', '.', '.', '.', '.', '.'
 | 's(3)',   in_8,  '.',  '.',  '.',  '.',  '.',  '.',  '.', '.', '.', '.', '.', '.'
 | 's(4)',    '.',  '.',  '.',  '.',  '.',  '.',  '.',  '.', '.', '.', '.', '.', '.'
 | 's(4)',    '.',  '.',  '.',  '.',  '.',  '.',  '.',  '.', '.', '.', '.', '.', '.'
 | 's(5)', 's(4)',  '.',  '.',  '.',  '.',  '.',  '.',  '.', '.', '.', '.', '.', '.'
 |    '.',    '.',  '.',  '.',  '.',  '.',  '.',  '.',  '.', '.', '.', '.', '.', '.'
 |    '.',    '.',  '.',  '.',  '.',  '.',  '.',  '.',  '.', '.', '.', '.', '.', '.'
 |];
register_states = 
[| local_1, '.', '.', '.', '.'
 |    in_0, '.', '.', '.', '.'
 |    in_1, '.', '.', '.', '.'
 |    in_1, '.', '.', '.', '.'
 |    in_3, '.', '.', '.', '.'
 |    in_3, '.', '.', '.', '.'
 |    in_3, '.', '.', '.', '.'
 |    in_3, '.', '.', '.', '.'
 |    in_3, '.', '.', '.', '.'
 |    in_3, '.', '.', '.', '.'
 |    in_3, '.', '.', '.', '.'
 |  's(4)', '.', '.', '.', '.'
 |  's(4)', '.', '.', '.', '.'
 |  's(4)', '.', '.', '.', '.'
 |  's(4)', '.', '.', '.', '.'
 |];
program = [S(SET1), TEE(TEE1), O('i32.store_1'), TEE(TEE1), O('i32.load16_s_3'), O('i32.store16_6'), O('i32.load8_u_7'), O('i32.sub_0'), O('i32.add_0'), O('i32.add_1'), TEE(TEE1), O('i32.const_0'), O('i32.store_13'), NOP];
% time elapsed: 0.34 s
----------
value = 11;
fgas = [1, 1, 1, 1, 1, 1, 1, 1, 1, 1, 1, 0, 0, 0];
fsize = [1, 1, 1, 1, 1, 1, 1, 1, 1, 1, 1, 1, 1, 1];
states = 
[|   in_0,   in_1, in_2, in_3, in_4, in_5, in_6, in_7, in_8, '.', '.', '.', '.', '.'
 |   in_1,   in_2, in_3, in_4, in_5, in_6, in_7, in_8,  '.', '.', '.', '.', '.', '.'
 |   in_3,   in_4, in_5, in_6, in_7, in_8,  '.',  '.',  '.', '.', '.', '.', '.', '.'
 | 's(0)',   in_4, in_5, in_6, in_7, in_8,  '.',  '.',  '.', '.', '.', '.', '.', '.'
 |   in_5,   in_6, in_7, in_8,  '.',  '.',  '.',  '.',  '.', '.', '.', '.', '.', '.'
 | 's(1)',   in_6, in_7, in_8,  '.',  '.',  '.',  '.',  '.', '.', '.', '.', '.', '.'
 | 's(2)',   in_7, in_8,  '.',  '.',  '.',  '.',  '.',  '.', '.', '.', '.', '.', '.'
 | 's(3)',   in_8,  '.',  '.',  '.',  '.',  '.',  '.',  '.', '.', '.', '.', '.', '.'
 | 's(4)',    '.',  '.',  '.',  '.',  '.',  '.',  '.',  '.', '.', '.', '.', '.', '.'
 | 's(4)',    '.',  '.',  '.',  '.',  '.',  '.',  '.',  '.', '.', '.', '.', '.', '.'
 | 's(5)', 's(4)',  '.',  '.',  '.',  '.',  '.',  '.',  '.', '.', '.', '.', '.', '.'
 |    '.',    '.',  '.',  '.',  '.',  '.',  '.',  '.',  '.', '.', '.', '.', '.', '.'
 |    '.',    '.',  '.',  '.',  '.',  '.',  '.',  '.',  '.', '.', '.', '.', '.', '.'
 |    '.',    '.',  '.',  '.',  '.',  '.',  '.',  '.',  '.', '.', '.', '.', '.', '.'
 |    '.',    '.',  '.',  '.',  '.',  '.',  '.',  '.',  '.', '.', '.', '.', '.', '.'
 |];
register_states = 
[| local_1, '.', '.', '.', '.'
 |    in_0, '.', '.', '.', '.'
 |    in_0, '.', '.', '.', '.'
 |    in_0, '.', '.', '.', '.'
 |    in_0, '.', '.', '.', '.'
 |    in_0, '.', '.', '.', '.'
 |    in_0, '.', '.', '.', '.'
 |    in_0, '.', '.', '.', '.'
 |    in_0, '.', '.', '.', '.'
 |  's(4)', '.', '.', '.', '.'
 |  's(4)', '.', '.', '.', '.'
 |  's(4)', '.', '.', '.', '.'
 |  's(4)', '.', '.', '.', '.'
 |  's(4)', '.', '.', '.', '.'
 |  's(4)', '.', '.', '.', '.'
 |];
program = [S(SET1), O('i32.store_1'), O('i32.load16_s_3'), O('i32.store16_6'), O('i32.load8_u_7'), O('i32.sub_0'), O('i32.add_0'), O('i32.add_1'), TEE(TEE1), O('i32.const_0'), O('i32.store_13'), NOP, NOP, NOP];
% time elapsed: 0.38 s
----------
==========
% time elapsed: 0.39 s
% [value > 10]
